NAME : XML100_3344_21
DIMENSION : 101
NB_CLUSTERS : 10
CLUSTERING_ALG : KMedoids
CLUSTERING_PARAMS : k(9)
CLUSTERS
1 0
2 12 22 31 35 42 56 81 83 86 91 92
3 1 16 19 65 71
4 13 23 29 38 48 59 68 76 78 84 95 96
5 4 15 21 36 39 43 44 47 55 61 80 82 89 93 97 99
6 8 9 50 52 57 66 73
7 27 70 79 85
8 5 14 24 30 40 53 60 72 74 75
9 6 11 25 28 32 33 34 37 45 51 64 77 88 100
10 2 3 7 10 17 18 20 26 41 46 49 54 58 62 63 67 69 87 90 94 98
EOF